c preprocessed version of BN_113, 43 vertices, 623 edges
p td 43 623
0 1
0 18
0 17
0 22
0 15
0 28
0 20
0 23
7 0
11 0
6 0
14 0
2 0
16 0
19 0
9 0
21 0
26 0
24 0
2 1
19 1
21 1
24 1
2 3
2 4
2 5
2 7
2 10
2 11
2 13
6 2
2 20
2 17
2 18
2 25
14 2
16 2
19 2
9 2
21 2
26 2
24 2
27 2
3 4
3 5
3 8
7 3
11 3
6 3
14 3
16 3
19 3
9 3
21 3
26 3
24 3
4 5
7 4
11 4
6 4
14 4
19 4
9 4
21 4
26 4
24 4
6 5
14 5
19 5
9 5
21 5
26 5
24 5
6 7
6 8
6 10
6 11
6 13
6 15
6 22
6 23
6 14
16 6
19 6
9 6
21 6
26 6
24 6
27 6
7 8
7 10
7 12
7 17
7 18
7 15
7 28
7 25
7 13
11 7
14 7
16 7
19 7
9 7
21 7
26 7
24 7
9 8
21 8
26 8
9 10
9 11
9 12
9 13
9 20
9 14
9 22
9 23
9 25
16 9
19 9
9 21
9 26
9 27
9 24
11 10
14 10
16 10
19 10
26 10
24 10
11 12
11 13
11 17
11 18
11 15
11 22
11 23
11 25
11 20
14 11
16 11
19 11
21 11
26 11
24 11
27 11
13 12
14 12
16 12
19 12
24 12
14 13
16 13
19 13
21 13
26 13
24 13
14 15
14 17
14 28
14 22
16 14
19 14
21 14
26 14
24 14
16 15
21 15
26 15
24 15
16 17
16 18
16 28
16 25
16 19
16 27
16 21
16 24
16 26
18 17
17 28
19 17
26 17
19 18
26 18
24 18
19 20
19 28
19 27
19 21
19 24
19 26
21 20
26 20
24 20
21 22
21 23
21 25
21 24
21 27
21 26
22 23
26 22
24 22
24 23
24 25
26 24
24 27
26 27
29 30
29 31
29 16
29 19
29 32
29 9
29 21
29 26
29 33
29 34
29 24
29 37
29 38
29 40
29 41
29 27
29 0
29 1
29 42
29 3
29 4
29 8
29 7
29 10
29 12
29 13
29 11
29 17
29 28
29 22
29 23
29 25
29 20
29 39
29 35
29 36
29 6
29 14
29 2
30 0
30 31
30 1
30 39
30 3
30 4
30 5
30 8
30 12
30 10
30 25
30 20
30 16
30 32
30 26
30 33
30 14
30 7
30 13
30 42
30 19
30 9
30 21
30 24
30 35
30 36
30 6
30 37
30 38
30 11
30 40
30 41
30 2
30 27
30 34
31 42
31 0
31 1
31 20
31 16
31 32
31 19
31 37
31 11
31 27
31 9
31 21
31 33
31 34
31 24
31 35
31 36
31 38
31 39
31 40
31 41
31 2
31 26
32 42
32 16
32 19
32 0
32 3
32 4
32 8
32 10
32 15
32 18
32 22
32 23
32 20
32 7
32 13
32 37
32 11
32 27
32 9
32 21
32 33
32 34
32 24
32 35
32 36
32 6
32 38
32 39
32 40
32 41
32 14
32 2
32 26
33 42
33 16
33 19
33 9
33 21
33 26
33 0
33 1
33 39
33 3
33 4
33 5
33 8
33 10
33 12
33 17
33 18
33 25
33 22
33 23
33 7
33 13
33 14
33 24
33 35
33 36
33 6
33 37
33 38
33 11
33 40
33 41
33 2
33 27
33 34
34 42
34 16
34 19
34 9
34 21
34 26
34 24
34 35
34 36
34 6
34 37
34 38
34 11
34 40
34 41
34 2
34 27
34 0
34 3
34 4
34 39
34 8
34 12
34 10
34 15
34 17
34 18
34 25
34 1
34 28
34 20
34 7
34 13
34 14
35 42
35 0
35 1
35 3
35 4
35 36
35 7
35 8
35 10
35 11
35 17
35 18
35 15
35 22
35 23
35 25
35 39
35 6
35 14
35 2
35 16
35 19
35 9
35 21
35 26
35 24
35 37
35 38
35 40
35 41
35 27
36 42
36 0
36 3
36 4
36 5
36 7
36 12
36 13
36 11
36 18
36 22
36 20
36 6
36 39
36 14
36 2
36 16
36 19
36 9
36 21
36 26
36 24
36 37
36 38
36 40
36 41
36 27
37 42
37 16
37 19
37 9
37 21
37 26
37 24
37 0
37 3
37 4
37 8
37 7
37 11
37 17
37 28
37 15
37 22
37 23
37 27
37 6
37 38
37 39
37 40
37 41
37 14
37 2
38 42
38 16
38 19
38 9
38 21
38 26
38 24
38 6
38 0
38 11
38 39
38 40
38 41
38 14
38 2
38 7
38 27
38 3
38 1
38 13
38 18
38 17
38 22
38 25
38 15
38 4
38 20
38 10
38 23
38 5
38 8
39 42
39 0
39 1
39 3
39 4
39 5
39 7
39 8
39 10
39 11
39 12
39 13
39 6
39 15
39 20
39 14
39 2
39 16
39 19
39 9
39 21
39 26
39 24
39 40
39 41
39 27
40 42
40 16
40 19
40 9
40 21
40 26
40 24
40 6
40 11
40 41
40 14
40 2
40 7
40 13
40 0
40 3
40 4
40 5
40 8
40 12
40 17
40 18
40 28
40 10
40 22
40 23
40 20
40 27
41 42
41 16
41 19
41 9
41 21
41 26
41 24
41 6
41 11
41 0
41 14
41 2
41 7
41 27
41 13
41 18
41 17
41 22
41 12
41 20
41 23
42 0
42 1
42 3
42 8
42 10
42 12
42 17
42 18
42 15
42 22
42 7
42 25
42 13
42 20
42 11
42 6
42 14
42 2
42 16
42 19
42 9
42 21
42 26
42 24
42 27
